100 2899
 130 674 961 101 378 198 995 595 125  22  57 622 743 253 749 234 499 210 384 285 476 928 981 329 347 762 363 855 396  14 361 548 225 115 376 318 964 284 905 815 826 386 265 968 806 912 135 848 368 832 142 806 743 188 924 398 260 425 884  22 322 928  60 791 287 712 745 586 236 998  85 971  89 981  52 947 662 526 859 236 933 326 609 617  83 417  12 480 200 814 405 860 617 366  89 139 554 553  11 488